
Gurobi 6.5.2 (linux64) logging started Mon Aug 29 10:58:02 2016

Optimize a model with 201 rows, 1585 columns and 4207 nonzeros
Coefficient statistics:
  Matrix range    [1e+00, 2e+00]
  Objective range [1e+00, 1e+02]
  Bounds range    [1e+00, 1e+00]
  RHS range       [1e+00, 1e+00]
Found heuristic solution: objective 6539
Presolve removed 48 rows and 1 columns
Presolve time: 0.01s
Presolved: 153 rows, 1584 columns, 3672 nonzeros
Variable types: 0 continuous, 1584 integer (1584 binary)

Root relaxation: objective 1.395500e+03, 144 iterations, 0.00 seconds

    Nodes    |    Current Node    |     Objective Bounds      |     Work
 Expl Unexpl |  Obj  Depth IntInf | Incumbent    BestBd   Gap | It/Node Time

     0     0 1395.50000    0   10 6539.00000 1395.50000  78.7%     -    0s
H    0     0                    1476.0000000 1395.50000  5.45%     -    0s
H    0     0                    1437.0000000 1395.50000  2.89%     -    0s
     0     0 1408.00000    0   10 1437.00000 1408.00000  2.02%     -    0s
     0     0 1408.00000    0   10 1437.00000 1408.00000  2.02%     -    0s
     0     0 1409.00000    0   24 1437.00000 1409.00000  1.95%     -    0s
H    0     0                    1417.0000000 1409.00000  0.56%     -    0s
*    0     0               0    1415.0000000 1415.00000  0.00%     -    0s

Cutting planes:
  Gomory: 6
  Cover: 3
  MIR: 1
  Zero half: 5

Explored 0 nodes (329 simplex iterations) in 0.05 seconds
Thread count was 8 (of 8 available processors)

Optimal solution found (tolerance 1.00e-04)
Best objective 1.415000000000e+03, best bound 1.415000000000e+03, gap 0.0%
